projected/problems_b25_r0_d7_m100_s666/_DIMACS/b25_d7_r0_s666_093.cnf
p cnf 331 654 25
c p show 1 2 3 4 5 6 7 8 9 10 11 12 13 14 15 16 17 18 19 20 21 22 23 24 25
-26 8 2 0
-27 -2 -8 0
-28 27 0
-28 26 0
-29 -21 0
-29 -5 0
-30 29 28 0
-31 -22 0
-31 20 0
-32 -1 23 0
-33 32 0
-33 31 0
-34 1 0
-34 -23 0
-35 22 -20 0
-36 35 0
-36 34 0
-37 36 33 0
-38 37 30 0
-39 20 -16 0
-40 9 0
-40 16 0
-41 40 0
-41 39 0
-42 12 24 0
-43 -10 15 0
-44 43 42 0
-45 44 41 0
-46 45 38 0
-47 19 -20 0
-48 13 0
-48 6 0
-49 48 47 0
-50 -3 -13 0
-51 23 -11 0
-52 51 0
-52 50 0
-53 52 0
-53 49 0
-54 -8 0
-54 8 0
-55 21 25 0
-56 55 0
-56 54 0
-57 19 0
-57 -7 0
-58 -6 0
-58 -14 0
-59 58 0
-59 57 0
-60 59 56 0
-61 60 0
-61 53 0
-62 61 46 0
-63 13 0
-63 5 0
-64 25 18 0
-65 64 63 0
-66 -25 0
-66 -18 0
-67 -13 -5 0
-68 67 66 0
-69 68 0
-69 65 0
-70 1 -13 0
-71 22 0
-71 16 0
-72 71 70 0
-73 -22 -16 0
-74 -1 0
-74 13 0
-75 74 73 0
-76 75 0
-76 72 0
-77 76 0
-77 69 0
-78 12 0
-78 10 0
-79 -12 0
-79 24 0
-80 79 78 0
-81 22 0
-81 -14 0
-82 -11 20 0
-83 82 0
-83 81 0
-84 83 80 0
-85 84 77 0
-86 -16 0
-86 7 0
-87 9 -17 0
-88 87 86 0
-89 15 0
-89 5 0
-90 -5 0
-90 -15 0
-91 90 89 0
-92 3 -16 0
-93 92 91 0
-94 -3 0
-94 16 0
-95 -15 -5 0
-96 5 15 0
-97 96 0
-97 95 0
-98 97 94 0
-99 98 0
-99 93 0
-100 99 0
-100 88 0
-101 3 0
-101 -25 0
-102 17 0
-102 5 0
-103 102 0
-103 101 0
-104 9 0
-104 -2 0
-105 8 25 0
-106 105 0
-106 104 0
-107 106 103 0
-108 107 0
-108 100 0
-109 -3 25 0
-110 -17 -5 0
-111 110 109 0
-112 -9 2 0
-113 -8 0
-113 -25 0
-114 113 112 0
-115 114 0
-115 111 0
-116 16 -7 0
-117 -9 0
-117 17 0
-118 117 0
-118 116 0
-119 94 0
-119 97 0
-120 91 0
-120 92 0
-121 120 119 0
-122 121 118 0
-123 122 0
-123 115 0
-124 123 108 0
-125 124 0
-125 85 0
-126 125 0
-126 62 0
-127 66 0
-127 67 0
-128 63 0
-128 64 0
-129 128 127 0
-130 73 0
-130 74 0
-131 70 0
-131 71 0
-132 131 130 0
-133 132 129 0
-134 -12 -10 0
-135 12 -24 0
-136 135 0
-136 134 0
-137 -22 14 0
-138 11 0
-138 -20 0
-139 138 137 0
-140 139 0
-140 136 0
-141 140 0
-141 133 0
-142 115 122 0
-143 100 107 0
-144 143 0
-144 142 0
-145 144 141 0
-146 -8 0
-146 -2 0
-147 2 0
-147 8 0
-148 147 146 0
-149 21 5 0
-150 149 0
-150 148 0
-151 34 35 0
-152 31 32 0
-153 152 0
-153 151 0
-154 153 0
-154 150 0
-155 -20 0
-155 16 0
-156 -9 -16 0
-157 156 155 0
-158 -12 0
-158 -24 0
-159 10 0
-159 -15 0
-160 159 0
-160 158 0
-161 160 0
-161 157 0
-162 161 0
-162 154 0
-163 -19 0
-163 20 0
-164 -13 -6 0
-165 164 0
-165 163 0
-166 3 0
-166 13 0
-167 -23 0
-167 11 0
-168 167 166 0
-169 168 165 0
-170 8 -8 0
-171 -21 0
-171 -25 0
-172 171 170 0
-173 -19 7 0
-174 6 14 0
-175 174 173 0
-176 175 0
-176 172 0
-177 176 169 0
-178 177 0
-178 162 0
-179 178 0
-179 145 0
-180 179 126 0
-181 14 -8 0
-182 13 0
-182 -4 0
-183 182 0
-183 181 0
-184 -13 4 0
-185 -14 0
-185 8 0
-186 185 0
-186 184 0
-187 186 183 0
-188 1 -5 0
-189 -14 -2 0
-190 189 0
-190 188 0
-191 190 187 0
-192 23 0
-192 12 0
-193 -15 -20 0
-194 193 0
-194 192 0
-195 5 17 0
-196 -15 -14 0
-197 196 0
-197 195 0
-198 197 194 0
-199 198 191 0
-200 -22 0
-200 -14 0
-201 18 0
-202 201 0
-202 200 0
-203 -19 0
-203 -3 0
-204 -15 0
-204 -24 0
-205 204 0
-205 203 0
-206 205 202 0
-207 -20 -23 0
-208 17 2 0
-209 208 207 0
-210 -4 0
-210 -1 0
-211 -15 6 0
-212 211 210 0
-213 212 209 0
-214 213 0
-214 206 0
-215 214 0
-215 199 0
-216 -20 -15 0
-217 13 0
-217 16 0
-218 217 0
-218 216 0
-219 16 0
-219 -16 0
-220 8 0
-220 -15 0
-221 220 219 0
-222 -8 15 0
-223 -16 16 0
-224 223 222 0
-225 224 0
-225 221 0
-226 225 0
-226 218 0
-227 -25 0
-227 -21 0
-228 -2 8 0
-229 228 227 0
-230 -24 0
-230 22 0
-231 18 -13 0
-232 231 230 0
-233 232 229 0
-234 233 0
-234 226 0
-235 11 0
-235 9 0
-236 -24 0
-237 236 0
-237 235 0
-238 24 0
-239 -11 -9 0
-240 239 0
-240 238 0
-241 240 237 0
-242 19 0
-242 13 0
-243 13 0
-243 17 0
-244 243 242 0
-245 -13 -17 0
-246 -19 -13 0
-247 246 245 0
-248 247 0
-248 244 0
-249 248 0
-249 241 0
-250 12 -14 0
-251 1 -15 0
-252 251 0
-252 250 0
-253 -9 0
-253 -13 0
-254 -24 -5 0
-255 254 0
-255 253 0
-256 255 252 0
-257 9 13 0
-258 24 0
-258 5 0
-259 258 257 0
-260 -12 0
-260 14 0
-261 -1 0
-261 15 0
-262 261 260 0
-263 262 259 0
-264 263 0
-264 256 0
-265 264 0
-265 249 0
-266 265 234 0
-267 266 0
-267 215 0
-268 267 0
-268 180 0
-269 184 185 0
-270 181 182 0
-271 270 0
-271 269 0
-272 -1 0
-272 5 0
-273 14 0
-273 2 0
-274 273 272 0
-275 274 0
-275 271 0
-276 -23 -12 0
-277 15 0
-277 20 0
-278 277 276 0
-279 -5 0
-279 -17 0
-280 15 0
-280 14 0
-281 280 279 0
-282 281 0
-282 278 0
-283 282 0
-283 275 0
-284 22 14 0
-285 -18 0
-286 285 284 0
-287 19 3 0
-288 15 24 0
-289 288 287 0
-290 289 0
-290 286 0
-291 20 0
-291 23 0
-292 -17 0
-292 -2 0
-293 292 0
-293 291 0
-294 4 1 0
-295 15 0
-295 -6 0
-296 295 0
-296 294 0
-297 296 0
-297 293 0
-298 297 290 0
-299 298 283 0
-300 20 0
-300 15 0
-301 -13 -16 0
-302 301 300 0
-303 222 0
-303 223 0
-304 219 0
-304 220 0
-305 304 303 0
-306 305 302 0
-307 25 21 0
-308 2 0
-308 -8 0
-309 308 0
-309 307 0
-310 24 -22 0
-311 -18 0
-311 13 0
-312 311 0
-312 310 0
-313 312 0
-313 309 0
-314 313 306 0
-315 238 239 0
-316 235 236 0
-317 316 0
-317 315 0
-318 245 0
-318 246 0
-319 242 0
-319 243 0
-320 319 318 0
-321 320 317 0
-322 259 0
-322 262 0
-323 252 0
-323 255 0
-324 323 322 0
-325 324 321 0
-326 325 0
-326 314 0
-327 326 299 0
-328 145 178 0
-329 62 125 0
-330 329 0
-330 328 0
-331 330 0
-331 327 0
331 268 0
-182 -184 0
-181 -185 0
-185 -181 0
-271 -187 0
-187 -271 0
-272 -188 0
-188 -272 0
-273 -189 0
-189 -273 0
-190 -274 0
-191 -275 0
-275 -191 0
-276 -192 0
-277 -193 0
-278 -194 0
-195 -279 0
-196 -280 0
-197 -281 0
-281 -197 0
-282 -198 0
-283 -199 0
-200 -284 0
-284 -200 0
-285 -201 0
-286 -202 0
-203 -287 0
-287 -203 0
-288 -204 0
-289 -205 0
-290 -206 0
-207 -291 0
-291 -207 0
-208 -292 0
-292 -208 0
-293 -209 0
-209 -293 0
-210 -294 0
-295 -211 0
-211 -295 0
-212 -296 0
-213 -297 0
-297 -213 0
-298 -214 0
-299 -215 0
-215 -299 0
-300 -216 0
-216 -300 0
-217 -301 0
-218 -302 0
-302 -218 0
-222 -220 0
-223 -219 0
-219 -223 0
-225 -305 0
-305 -225 0
-306 -226 0
-226 -306 0
-227 -307 0
-307 -227 0
-308 -228 0
-309 -229 0
-230 -310 0
-311 -231 0
-231 -311 0
-232 -312 0
-312 -232 0
-313 -233 0
-233 -313 0
-234 -314 0
-236 -238 0
-235 -239 0
-239 -235 0
-317 -241 0
-241 -317 0
-243 -245 0
-245 -243 0
-246 -242 0
-242 -246 0
-248 -320 0
-249 -321 0
-321 -249 0
-257 -253 0
-253 -257 0
-258 -254 0
-254 -258 0
-255 -259 0
-259 -255 0
-260 -250 0
-261 -251 0
-262 -252 0
-252 -262 0
-264 -324 0
-324 -264 0
-325 -265 0
-265 -325 0
-266 -326 0
-267 -327 0
-64 -66 0
-66 -64 0
-67 -63 0
-63 -67 0
-69 -129 0
-71 -73 0
-73 -71 0
-70 -74 0
-76 -132 0
-77 -133 0
-134 -78 0
-78 -134 0
-135 -79 0
-79 -135 0
-80 -136 0
-81 -137 0
-137 -81 0
-82 -138 0
-138 -82 0
-139 -83 0
-83 -139 0
-84 -140 0
-85 -141 0
-109 -101 0
-102 -110 0
-110 -102 0
-111 -103 0
-103 -111 0
-104 -112 0
-112 -104 0
-105 -113 0
-113 -105 0
-114 -106 0
-106 -114 0
-107 -115 0
-86 -116 0
-87 -117 0
-88 -118 0
-118 -88 0
-94 -92 0
-97 -91 0
-91 -97 0
-99 -121 0
-121 -99 0
-122 -100 0
-144 -124 0
-124 -144 0
-125 -145 0
-28 -148 0
-148 -28 0
-29 -149 0
-149 -29 0
-150 -30 0
-30 -150 0
-34 -32 0
-32 -34 0
-35 -31 0
-153 -37 0
-37 -153 0
-38 -154 0
-155 -39 0
-39 -155 0
-40 -156 0
-41 -157 0
-157 -41 0
-42 -158 0
-158 -42 0
-159 -43 0
-160 -44 0
-161 -45 0
-45 -161 0
-46 -162 0
-47 -163 0
-163 -47 0
-164 -48 0
-165 -49 0
-49 -165 0
-166 -50 0
-50 -166 0
-51 -167 0
-52 -168 0
-53 -169 0
-169 -53 0
-54 -170 0
-171 -55 0
-55 -171 0
-56 -172 0
-172 -56 0
-57 -173 0
-58 -174 0
-59 -175 0
-175 -59 0
-176 -60 0
-177 -61 0
-61 -177 0
-62 -178 0
-178 -62 0
-330 -180 0
