projected/problems_b25_r0_d7_m100_s666/b25_d7_r0_s666_093.smt2
(set-logic QF_UF)
(declare-fun A0 () Bool)
(declare-fun A1 () Bool)
(declare-fun A2 () Bool)
(declare-fun A3 () Bool)
(declare-fun A4 () Bool)
(declare-fun A5 () Bool)
(declare-fun A6 () Bool)
(declare-fun A7 () Bool)
(declare-fun A8 () Bool)
(declare-fun A9 () Bool)
(declare-fun A10 () Bool)
(declare-fun A11 () Bool)
(declare-fun A12 () Bool)
(declare-fun A13 () Bool)
(declare-fun A14 () Bool)
(declare-fun A15 () Bool)
(declare-fun A16 () Bool)
(declare-fun A17 () Bool)
(declare-fun A18 () Bool)
(declare-fun A19 () Bool)
(declare-fun A20 () Bool)
(declare-fun A21 () Bool)
(declare-fun A22 () Bool)
(declare-fun A23 () Bool)
(declare-fun A24 () Bool)
(assert (let ((.def_0 (not A3))) (let ((.def_1 (and A12 .def_0))) (let ((.def_2 (not A7))) (let ((.def_3 (or A13 .def_2))) (let ((.def_4 (not .def_3))) (let ((.def_5 (= .def_4 .def_1))) (let ((.def_6 (not .def_5))) (let ((.def_7 (not A0))) (let ((.def_8 (and .def_7 A4))) (let ((.def_9 (not .def_8))) (let ((.def_10 (and A13 A1))) (let ((.def_11 (not .def_10))) (let ((.def_12 (and .def_11 .def_9))) (let ((.def_13 (or .def_12 .def_6))) (let ((.def_14 (not .def_13))) (let ((.def_15 (not A11))) (let ((.def_16 (not A22))) (let ((.def_17 (or .def_16 .def_15))) (let ((.def_18 (and A14 A19))) (let ((.def_19 (or .def_18 .def_17))) (let ((.def_20 (or A4 A16))) (let ((.def_21 (not A13))) (let ((.def_22 (not A14))) (let ((.def_23 (or .def_22 .def_21))) (let ((.def_24 (and .def_23 .def_20))) (let ((.def_25 (not .def_24))) (let ((.def_26 (and .def_25 .def_19))) (let ((.def_27 (and .def_26 .def_14))) (let ((.def_28 (not A21))) (let ((.def_29 (and .def_28 .def_21))) (let ((.def_30 (not .def_29))) (let ((.def_31 (not A17))) (let ((.def_32 (and .def_31 .def_31))) (let ((.def_33 (or .def_32 .def_30))) (let ((.def_34 (not A2))) (let ((.def_35 (not A18))) (let ((.def_36 (and .def_35 .def_34))) (let ((.def_37 (not .def_36))) (let ((.def_38 (or A14 A23))) (let ((.def_39 (or .def_38 .def_37))) (let ((.def_40 (and .def_39 .def_33))) (let ((.def_41 (not A19))) (let ((.def_42 (or .def_41 .def_16))) (let ((.def_43 (not .def_42))) (let ((.def_44 (or A16 A1))) (let ((.def_45 (not .def_44))) (let ((.def_46 (and .def_45 .def_43))) (let ((.def_47 (not .def_46))) (let ((.def_48 (and .def_0 .def_7))) (let ((.def_49 (not A5))) (let ((.def_50 (and A14 .def_49))) (let ((.def_51 (not .def_50))) (let ((.def_52 (or .def_51 .def_48))) (let ((.def_53 (or .def_52 .def_47))) (let ((.def_54 (not .def_53))) (let ((.def_55 (or .def_54 .def_40))) (let ((.def_56 (or .def_55 .def_27))) (let ((.def_57 (not .def_56))) (let ((.def_58 (and A19 A14))) (let ((.def_59 (not .def_58))) (let ((.def_60 (and A12 A15))) (let ((.def_61 (and .def_60 .def_59))) (let ((.def_62 (not .def_61))) (let ((.def_63 (or .def_2 A14))) (let ((.def_64 (not A15))) (let ((.def_65 (or .def_64 A15))) (let ((.def_66 (not .def_65))) (let ((.def_67 (= .def_66 .def_63))) (let ((.def_68 (not .def_67))) (let ((.def_69 (or .def_68 .def_62))) (let ((.def_70 (not .def_69))) (let ((.def_71 (not A20))) (let ((.def_72 (not A24))) (let ((.def_73 (and .def_72 .def_71))) (let ((.def_74 (not .def_73))) (let ((.def_75 (and A1 .def_2))) (let ((.def_76 (and .def_75 .def_74))) (let ((.def_77 (not A23))) (let ((.def_78 (and .def_77 A21))) (let ((.def_79 (and .def_31 A12))) (let ((.def_80 (not .def_79))) (let ((.def_81 (or .def_80 .def_78))) (let ((.def_82 (not .def_81))) (let ((.def_83 (and .def_82 .def_76))) (let ((.def_84 (not .def_83))) (let ((.def_85 (and .def_84 .def_70))) (let ((.def_86 (or .def_77 .def_77))) (let ((.def_87 (and A10 A8))) (let ((.def_88 (not .def_87))) (let ((.def_89 (= .def_88 .def_86))) (let ((.def_90 (not .def_89))) (let ((.def_91 (and A12 A16))) (let ((.def_92 (not .def_91))) (let ((.def_93 (not A12))) (let ((.def_94 (or .def_35 .def_93))) (let ((.def_95 (not .def_94))) (let ((.def_96 (= .def_95 .def_92))) (let ((.def_97 (and .def_96 .def_90))) (let ((.def_98 (not .def_97))) (let ((.def_99 (or A8 A12))) (let ((.def_100 (not .def_99))) (let ((.def_101 (and A23 A4))) (let ((.def_102 (not .def_101))) (let ((.def_103 (and .def_102 .def_100))) (let ((.def_104 (not .def_103))) (let ((.def_105 (and .def_15 A13))) (let ((.def_106 (and .def_7 A14))) (let ((.def_107 (or .def_106 .def_105))) (let ((.def_108 (not .def_107))) (let ((.def_109 (= .def_108 .def_104))) (let ((.def_110 (not .def_109))) (let ((.def_111 (or .def_110 .def_98))) (let ((.def_112 (not .def_111))) (let ((.def_113 (or .def_112 .def_85))) (let ((.def_114 (and .def_113 .def_57))) (let ((.def_115 (or A24 A17))) (let ((.def_116 (not .def_115))) (let ((.def_117 (not A4))) (let ((.def_118 (or .def_93 .def_117))) (let ((.def_119 (not .def_118))) (let ((.def_120 (= .def_119 .def_116))) (let ((.def_121 (and A21 A15))) (let ((.def_122 (not .def_121))) (let ((.def_123 (or A0 .def_93))) (let ((.def_124 (= .def_123 .def_122))) (let ((.def_125 (and .def_124 .def_120))) (let ((.def_126 (not A9))) (let ((.def_127 (or .def_15 .def_126))) (let ((.def_128 (not .def_127))) (let ((.def_129 (or A11 .def_77))) (let ((.def_130 (not .def_129))) (let ((.def_131 (or .def_130 .def_128))) (let ((.def_132 (and A21 .def_21))) (let ((.def_133 (not .def_132))) (let ((.def_134 (not A10))) (let ((.def_135 (or .def_134 A19))) (let ((.def_136 (not .def_135))) (let ((.def_137 (or .def_136 .def_133))) (let ((.def_138 (not .def_137))) (let ((.def_139 (or .def_138 .def_131))) (let ((.def_140 (or .def_139 .def_125))) (let ((.def_141 (or .def_34 A24))) (let ((.def_142 (and A16 A4))) (let ((.def_143 (not .def_142))) (let ((.def_144 (or .def_143 .def_141))) (let ((.def_145 (not .def_144))) (let ((.def_146 (not A1))) (let ((.def_147 (and A8 .def_146))) (let ((.def_148 (not .def_147))) (let ((.def_149 (or A7 A24))) (let ((.def_150 (not .def_149))) (let ((.def_151 (or .def_150 .def_148))) (let ((.def_152 (not .def_151))) (let ((.def_153 (or .def_152 .def_145))) (let ((.def_154 (and .def_64 A6))) (let ((.def_155 (not A16))) (let ((.def_156 (or A8 .def_155))) (let ((.def_157 (or .def_156 .def_154))) (let ((.def_158 (not .def_157))) (let ((.def_159 (and .def_34 A15))) (let ((.def_160 (= .def_117 A14))) (let ((.def_161 (not .def_160))) (let ((.def_162 (= .def_161 .def_159))) (let ((.def_163 (not .def_162))) (let ((.def_164 (or .def_163 .def_158))) (let ((.def_165 (= .def_164 .def_153))) (let ((.def_166 (not .def_165))) (let ((.def_167 (and .def_166 .def_140))) (let ((.def_168 (= A1 .def_2))) (let ((.def_169 (not .def_168))) (let ((.def_170 (and .def_71 .def_117))) (let ((.def_171 (not .def_170))) (let ((.def_172 (and .def_171 .def_169))) (let ((.def_173 (not .def_172))) (let ((.def_174 (and A0 .def_16))) (let ((.def_175 (not .def_174))) (let ((.def_176 (or A21 .def_41))) (let ((.def_177 (= .def_176 .def_175))) (let ((.def_178 (not .def_177))) (let ((.def_179 (or .def_178 .def_173))) (let ((.def_180 (and .def_41 A15))) (let ((.def_181 (not .def_180))) (let ((.def_182 (and A8 A15))) (let ((.def_183 (and .def_182 .def_181))) (let ((.def_184 (not .def_183))) (let ((.def_185 (or A11 A23))) (let ((.def_186 (not .def_185))) (let ((.def_187 (and A9 .def_22))) (let ((.def_188 (and .def_187 .def_186))) (let ((.def_189 (and .def_188 .def_184))) (let ((.def_190 (not .def_189))) (let ((.def_191 (or .def_190 .def_179))) (let ((.def_192 (or A18 .def_41))) (let ((.def_193 (not .def_192))) (let ((.def_194 (or .def_93 .def_49))) (let ((.def_195 (and .def_194 .def_193))) (let ((.def_196 (not .def_195))) (let ((.def_197 (and A2 A12))) (let ((.def_198 (not .def_197))) (let ((.def_199 (or A22 .def_134))) (let ((.def_200 (and .def_199 .def_198))) (let ((.def_201 (and .def_200 .def_196))) (let ((.def_202 (not .def_201))) (let ((.def_203 (and .def_2 A7))) (let ((.def_204 (and .def_71 .def_72))) (let ((.def_205 (not .def_204))) (let ((.def_206 (and .def_205 .def_203))) (let ((.def_207 (not .def_206))) (let ((.def_208 (not A6))) (let ((.def_209 (and A18 .def_208))) (let ((.def_210 (and .def_49 .def_21))) (let ((.def_211 (and .def_210 .def_209))) (let ((.def_212 (not .def_211))) (let ((.def_213 (and .def_212 .def_207))) (let ((.def_214 (or .def_213 .def_202))) (let ((.def_215 (not .def_214))) (let ((.def_216 (or .def_215 .def_191))) (let ((.def_217 (not .def_216))) (let ((.def_218 (= .def_217 .def_167))) (let ((.def_219 (= .def_218 .def_114))) (let ((.def_220 (not .def_219))) .def_220))))))))))))))))))))))))))))))))))))))))))))))))))))))))))))))))))))))))))))))))))))))))))))))))))))))))))))))))))))))))))))))))))))))))))))))))))))))))))))))))))))))))))))))))))))))))))))))))))))))))))))))))))))))))))))))
(check-sat)
